; benchmark generated from python API
(set-info :status unknown)
(declare-fun S_5 () Real)
(declare-fun L_1 () Real)
(declare-fun A_1 () Real)
(declare-fun S_4 () Real)
(declare-fun L_2 () Real)
(declare-fun A_2 () Real)
(declare-fun A_4 () Real)
(declare-fun A_5 () Real)
(declare-fun A_3 () Real)
(declare-fun A_0 () Real)
(declare-fun S_3 () Real)
(declare-fun S_2 () Real)
(declare-fun S_1 () Real)
(declare-fun S_0 () Real)
(declare-fun C () Real)
(declare-fun B () Real)
(declare-fun L_0 () Real)
(declare-fun a () Real)
(assert
 (exists ((I_0 Real) (I_1 Real) (I_2 Real) (I_3 Real) (I_4 Real) (I_5 Real) (L_3 Real) (L_4 Real) (L_5 Real) )(let ((?x100 (- A_1 L_1)))
 (let (($x149 (<= ?x100 S_5)))
 (let (($x148 (<= ?x100 S_4)))
 (let ((?x105 (- A_2 L_2)))
 (let (($x147 (> ?x105 S_4)))
 (let (($x146 (>= A_5 A_4)))
 (let (($x145 (>= A_4 A_3)))
 (let (($x144 (>= A_3 A_2)))
 (let (($x143 (>= A_2 A_1)))
 (let (($x142 (>= A_1 A_0)))
 (let (($x140 (>= S_5 S_4)))
 (let (($x137 (>= S_4 S_3)))
 (let (($x134 (>= S_3 S_2)))
 (let (($x131 (>= S_2 S_1)))
 (let (($x128 (>= S_1 S_0)))
 (let ((?x173 (- A_5 L_5)))
 (let ((?x98 (* C 1.0)))
 (let ((?x174 (+ I_4 ?x98)))
 (let (($x182 (= I_4 (ite (< (+ I_3 ?x98) (- A_4 L_4)) (+ I_3 ?x98) (- A_4 L_4)))))
 (let (($x187 (= I_3 (ite (< (+ I_2 ?x98) (- A_3 L_3)) (+ I_2 ?x98) (- A_3 L_3)))))
 (let (($x196 (= L_5 L_4)))
 (let (($x201 (=> (not (> (- (- A_5 L_4) I_5) B)) $x196)))
 (let (($x199 (> (- (- A_5 L_4) I_5) B)))
 (let (($x205 (=> $x199 (= L_5 (- (- A_5 I_5) B)))))
 (let (($x206 (= L_4 L_3)))
 (let (($x211 (=> (not (> (- (- A_4 L_3) I_4) B)) $x206)))
 (let (($x209 (> (- (- A_4 L_3) I_4) B)))
 (let (($x215 (=> $x209 (= L_4 (- (- A_4 I_4) B)))))
 (let (($x216 (= L_3 L_2)))
 (let (($x220 (=> (not (> (- (- A_3 L_2) I_3) B)) $x216)))
 (let (($x218 (> (- (- A_3 L_2) I_3) B)))
 (let (($x224 (=> $x218 (= L_3 (- (- A_3 I_3) B)))))
 (let (($x66 (= L_2 L_1)))
 (let (($x228 (=> (not (> (- (- A_2 L_1) I_2) B)) $x66)))
 (let (($x226 (> (- (- A_2 L_1) I_2) B)))
 (let (($x232 (=> $x226 (= L_2 (- (- A_2 I_2) B)))))
 (let (($x56 (= L_1 L_0)))
 (let (($x236 (=> (not (> (- (- A_1 L_0) I_1) B)) $x56)))
 (let (($x234 (> (- (- A_1 L_0) I_1) B)))
 (let (($x240 (=> $x234 (= L_1 (- (- A_1 I_1) B)))))
 (let (($x47 (= a 1.0)))
 (let ((?x43 (* 5.0 a)))
 (let (($x45 (>= B ?x43)))
 (let (($x44 (>= C ?x43)))
 (let (($x39 (>= L_0 0.0)))
 (and $x39 (<= I_0 (- A_0 L_0)) $x44 $x45 $x47 $x240 $x236 $x232 $x228 $x224 $x220 $x215 $x211 $x205 $x201 $x240 $x236 $x232 $x228 $x224 $x220 $x215 $x211 $x205 $x201 (= I_1 (ite (< (+ I_0 ?x98) ?x100) (+ I_0 ?x98) ?x100)) (= I_2 (ite (< (+ I_1 ?x98) ?x105) (+ I_1 ?x98) ?x105)) $x187 $x182 (= I_5 (ite (< ?x174 ?x173) ?x174 ?x173)) (>= S_0 (- I_0 ?x98)) (<= S_0 I_0) (>= S_1 I_0) $x128 (<= S_1 I_1) (>= S_2 I_1) $x131 (<= S_2 I_2) (>= S_3 I_2) $x134 (<= S_3 I_3) (>= S_4 I_3) $x137 (<= S_4 I_4) (>= S_5 I_4) $x140 (<= S_5 I_5) $x142 $x143 $x144 $x145 $x146 $x147 $x148 $x149)))))))))))))))))))))))))))))))))))))))))))))))
 )
(check-sat)
